p cnf 14 64
-3 -4 -11 0
1 6 10 0
2 -3 -5 0
-8 11 -13 0
-3 4 -10 0
-2 6 8 0
-4 -6 9 0
1 -3 -14 0
1 4 14 0
-4 8 -12 0
4 13 -14 0
-7 8 -12 0
3 7 9 0
-2 -13 14 0
1 9 -12 0
7 -11 -12 0
-8 9 11 0
2 -3 -7 0
1 -6 14 0
-4 8 -13 0
5 -7 -13 0
-3 8 -10 0
4 -7 -13 0
-1 -4 10 0
3 10 12 0
-5 -8 14 0
-2 3 13 0
4 -11 14 0
-3 -10 14 0
3 -12 14 0
-5 -7 11 0
-10 13 -14 0
2 11 12 0
2 7 10 0
-8 9 10 0
8 -9 14 0
-6 -8 10 0
6 -8 -9 0
-6 10 -14 0
-4 -8 12 0
-1 -6 12 0
4 -8 -12 0
-5 9 -11 0
8 -13 -14 0
2 5 -14 0
-3 7 -12 0
1 7 -12 0
3 10 -14 0
-8 -9 11 0
-8 9 13 0
-2 8 -9 0
1 -3 4 0
4 7 -11 0
-3 10 14 0
-6 -9 -12 0
-8 -9 12 0
2 -10 -12 0
4 13 14 0
-2 -3 -6 0
3 -6 -13 0
1 6 -10 0
-6 -10 12 0
-4 6 11 0
-4 -9 11 0
